
Gurobi 9.1.1 (mac64, gurobi_cl) logging started Sat Mar  6 16:53:39 2021

Academic license - for non-commercial use only - expires 2021-04-06
Using license file /Users/agnese/gurobi.lic
Set parameter LogFile to value gurobi.log

Gurobi Optimizer version 9.1.1 build v9.1.1rc0 (mac64)
Copyright (c) 2020, Gurobi Optimization, LLC

Read LP format model from file /Users/agnese/Documents/KTH-Work/GitHub_repositories/KTH-dESA/GLUCOSE/results/FINAL_2060/4.3_Food/new3/GLUCOSE_4.FinalFood_new3.lp
Reading time = 4.37 seconds
cost: 1097424 rows, 1087932 columns, 1788359 nonzeros
Thread count: 2 physical cores, 4 logical processors, using up to 4 threads
Optimize a model with 1097424 rows, 1087932 columns and 1788359 nonzeros
Model fingerprint: 0xaa8fc121
Coefficient statistics:
  Matrix range     [2e-08, 4e+11]
  Objective range  [7e-08, 4e+11]
  Bounds range     [0e+00, 0e+00]
  RHS range        [1e-04, 1e+06]
Warning: Model contains large matrix coefficient range
Warning: Model contains large objective coefficients
         Consider reformulating model or setting NumericFocus parameter
         to avoid numerical issues.

Concurrent LP optimizer: dual simplex and barrier
Showing barrier log only...

Presolve removed 1071887 rows and 1069851 columns
Presolve time: 1.52s
Presolved: 25537 rows, 18274 columns, 346993 nonzeros

Ordering time: 0.78s

Barrier statistics:
 AA' NZ     : 1.274e+06
 Factor NZ  : 6.832e+06 (roughly 70 MBytes of memory)
 Factor Ops : 5.021e+09 (less than 1 second per iteration)
 Threads    : 1

                  Objective                Residual
Iter       Primal          Dual         Primal    Dual     Compl     Time
   0   1.33157217e+21 -3.84970718e+17  2.46e+09 2.08e+12  9.24e+16     3s
   1   7.16691078e+20 -5.20201062e+17  2.42e+09 1.98e+12  9.01e+16     4s
   2   7.01894536e+20 -9.02539681e+17  1.81e+09 1.77e+12  7.36e+16     4s
   3   3.18753987e+20 -3.29173771e+18  7.36e+08 7.27e+11  3.72e+16     5s
   4   1.13590912e+20 -4.51492786e+18  2.33e+08 8.30e+10  1.31e+16     5s
   5   8.78040965e+18 -3.82741317e+18  1.77e+07 8.69e+07  1.10e+15     6s
   6   1.02470512e+18 -2.21641907e+18  2.06e+06 1.88e+07  1.58e+14     7s
   7   7.66539107e+17 -1.78851001e+18  1.60e+06 1.44e+07  1.22e+14     7s
   8   1.39078347e+17 -9.01202613e+17  2.68e+05 4.50e+06  3.20e+13     8s
   9   2.33959578e+16 -2.14796614e+17  4.40e+04 5.22e+05  6.53e+12     9s
  10   8.40837697e+15 -6.10199216e+16  1.52e+04 1.24e+05  2.00e+12     9s
  11   3.27443689e+15 -8.93224375e+15  5.81e+03 9.26e+03  4.65e+11    10s
  12   7.10087946e+14 -3.86891732e+15  1.22e+03 3.13e+03  1.36e+11    10s
  13   1.59304516e+14 -7.97842784e+14  2.37e+02 2.03e+02  2.62e+10    11s
  14   4.59500217e+13 -2.82214127e+14  5.94e+01 4.61e+01  8.07e+09    12s
  15   1.75905446e+13 -1.53943063e+14  1.93e+01 2.24e+01  3.92e+09    12s
  16   5.69996647e+11 -1.49297264e+13  1.23e-01 3.00e-01  3.23e+08    13s
  17   1.99362459e+10 -6.88987702e+11  2.13e-08 1.25e-02  1.46e+07    14s
  18   3.67988772e+09 -4.92283409e+10  1.80e-08 7.32e-04  1.09e+06    14s
  19   3.81040208e+08 -2.48649039e+09  3.95e-09 2.44e-04  5.90e+04    15s
  20   6.47125388e+07 -4.40007649e+08  4.55e-09 2.44e-04  1.04e+04    16s
  21   5.46722815e+06 -7.92235192e+07  1.34e-09 2.44e-04  1.74e+03    16s
  22   1.52441600e+06 -4.72734958e+06  2.24e-09 2.44e-04  1.29e+02    17s
  23   4.40899452e+05 -3.78333072e+05  1.12e-09 2.44e-04  1.69e+01    17s
  24   3.66523953e+05 -8.90036833e+04  1.57e-09 2.44e-04  9.37e+00    18s
  25   3.09375203e+05  1.39637573e+05  1.38e-09 2.44e-04  3.49e+00    19s
  26   2.75710977e+05  2.33077386e+05  2.24e-09 2.44e-04  8.77e-01    19s
  27   2.68195467e+05  2.41424134e+05  1.19e-09 2.44e-04  5.51e-01    20s
  28   2.63948845e+05  2.45647515e+05  9.28e-10 2.44e-04  3.77e-01    20s
  29   2.58387818e+05  2.49613415e+05  6.11e-10 2.44e-04  1.81e-01    21s
  30   2.55152102e+05  2.51404686e+05  7.49e-10 2.44e-04  7.71e-02    21s
  31   2.52999121e+05  2.52654217e+05  6.61e-09 2.44e-04  7.18e-03    22s
  32   2.52890019e+05  2.52777215e+05  4.04e-08 2.44e-04  2.47e-03    23s
  33   2.52839577e+05  2.52831519e+05  2.37e-09 2.44e-04  2.52e-04    24s
  34   2.52835552e+05  2.52837141e+05  4.09e-08 3.66e-04  3.65e-05    25s
  35   2.52834540e+05  2.52835426e+05  1.19e-08 4.88e-04  1.12e-05    25s
  36   2.52834111e+05  2.52834271e+05  3.00e-07 2.44e-04  2.54e-06    26s
  37   2.52834079e+05  2.52834227e+05  2.08e-07 2.44e-04  1.76e-06    26s
  38   2.52834053e+05  2.52834083e+05  1.22e-06 2.44e-04  1.03e-06    27s
  39   2.52834029e+05  2.52834037e+05  2.72e-06 2.44e-04  4.53e-07    28s
  40   2.52834021e+05  2.52834022e+05  1.61e-06 1.22e-04  2.63e-07    28s

Barrier solved model in 40 iterations and 28.15 seconds
Optimal objective 2.52834021e+05

Crossover log...

    6674 DPushes remaining with DInf 0.0000000e+00                28s
       0 DPushes remaining with DInf 0.0000000e+00                29s

    5898 PPushes remaining with PInf 2.8363769e-03                29s
       0 PPushes remaining with PInf 7.2945036e-05                29s

  Push phase complete: Pinf 7.2945036e-05, Dinf 1.3157800e+04     29s

Iteration    Objective       Primal Inf.    Dual Inf.      Time
    9850    2.5283411e+05   0.000000e+00   1.315780e+04     29s
Extra simplex iterations after uncrush: 1
   10297    2.5283401e+05   0.000000e+00   0.000000e+00     31s

Solved with barrier
Solved in 10297 iterations and 30.77 seconds
Optimal objective  2.528340110e+05

Wrote result file 'FOODnew3_resultsGUROBI.sol'

